(set-info :source |printed by MathSAT|)
(declare-fun call__main_.retard1 () Bool)
(declare-fun call__main_.avance0 () Bool)
(declare-fun call__main_.avance1 () Bool)
(declare-fun call__main_._H1_ () Bool)
(declare-fun nB0 () Int)
(declare-fun call__main_.call_hypothese.flby () Bool)
(declare-fun avance0 () Bool)
(declare-fun call__main_.flby2 () Int)
(declare-fun flby () Bool)
(declare-fun call__main_.diff0 () Int)
(declare-fun call__main_.call_hypothese.flby2 () Int)
(declare-fun call__main_.call_hypothese2.c () Int)
(declare-fun call__main_.flby () Int)
(declare-fun call__main_.call_controleur.flby () Bool)
(declare-fun call__main_.flby3 () Int)
(declare-fun call__main_._H0_ () Bool)
(declare-fun call__main_.call_controleur.retard () Bool)
(declare-fun call__main_.call_controleur2.avance () Bool)
(declare-fun call__main_.diff1 () Int)
(declare-fun call_Sofar.flby () Bool)
(declare-fun call__main_.call_controleur2.flby2 () Bool)
(declare-fun call__main_.ast () Bool)
(declare-fun call__main_.call_controleur.flby2 () Bool)
(declare-fun retard0 () Bool)
(declare-fun nB1 () Int)
(declare-fun diff0 () Int)
(declare-fun retard1 () Bool)
(declare-fun call__main_.call_controleur.diff () Int)
(declare-fun call__main_.nB1 () Int)
(declare-fun call__main_.call_controleur2.diff () Int)
(declare-fun call__main_.call_controleur2.flby () Bool)
(declare-fun call__main_.call_hypothese.c () Int)
(declare-fun call__main_.call_controleur2.retard () Bool)
(declare-fun _OK_ () Bool)
(declare-fun avance1 () Bool)
(declare-fun call__main_.call_hypothese.ok () Bool)
(declare-fun call__main_.call_hypothese2.flby () Bool)
(declare-fun diff1 () Int)
(declare-fun nS () Int)
(declare-fun ast () Bool)
(declare-fun call__main_.call_hypothese2.ok () Bool)
(declare-fun call__main_.nS () Int)
(declare-fun call__main_.call_controleur.avance () Bool)
(declare-fun call_Sofar.Sofar () Bool)
(declare-fun call__main_.call_hypothese2.flby2 () Int)
(declare-fun call__main_.nB0 () Int)
(declare-fun call__main_.retard0 () Bool)
(define-fun .def_612 () Bool (= ast call_Sofar.flby))
(define-fun .def_610 () Bool (not call__main_.call_controleur2.flby2))
(define-fun .def_608 () Bool (not call__main_.call_controleur2.flby))
(define-fun .def_606 () Bool (not call__main_.call_controleur.flby2))
(define-fun .def_604 () Bool (not call__main_.call_controleur.flby))
(define-fun .def_602 () Bool (= call__main_.call_hypothese2.flby2 0))
(define-fun .def_599 () Bool (= call__main_.call_hypothese.flby2 0))
(define-fun .def_596 () Bool (= call__main_.flby3 0))
(define-fun .def_594 () Bool (= call__main_.flby2 0))
(define-fun .def_592 () Bool (= call__main_.flby 0))
(define-fun .def_593 () Bool (and flby .def_592))
(define-fun .def_595 () Bool (and .def_593 .def_594))
(define-fun .def_597 () Bool (and .def_595 .def_596))
(define-fun .def_598 () Bool (and call__main_.call_hypothese.flby .def_597))
(define-fun .def_600 () Bool (and .def_598 .def_599))
(define-fun .def_601 () Bool (and call__main_.call_hypothese2.flby .def_600))
(define-fun .def_603 () Bool (and .def_601 .def_602))
(define-fun .def_605 () Bool (and .def_603 .def_604))
(define-fun .def_607 () Bool (and .def_605 .def_606))
(define-fun .def_609 () Bool (and .def_607 .def_608))
(define-fun .def_611 () Bool (and .def_609 .def_610))
(define-fun .def_613 () Bool (and .def_611 .def_612))
(define-fun .def_590 () Bool (= call_Sofar.Sofar call_Sofar.flby))
(define-fun .def_586 () Bool (= call__main_.call_controleur2.retard call__main_.call_controleur2.flby2))
(define-fun .def_583 () Bool (= call__main_.call_controleur2.avance call__main_.call_controleur2.flby))
(define-fun .def_577 () Int (* (- 1) call__main_.call_controleur2.diff))
(define-fun .def_563 () Int (* (- 1) call__main_.nS))
(define-fun .def_578 () Int (+ .def_563 .def_577))
(define-fun .def_579 () Int (+ call__main_.nB1 .def_578))
(define-fun .def_580 () Bool (= .def_579 0))
(define-fun .def_572 () Bool (= call__main_.call_controleur.retard call__main_.call_controleur.flby2))
(define-fun .def_569 () Bool (= call__main_.call_controleur.avance call__main_.call_controleur.flby))
(define-fun .def_562 () Int (* (- 1) call__main_.call_controleur.diff))
(define-fun .def_564 () Int (+ .def_563 .def_562))
(define-fun .def_565 () Int (+ call__main_.nB0 .def_564))
(define-fun .def_566 () Bool (= .def_565 0))
(define-fun .def_557 () Bool (= call__main_.call_hypothese2.c call__main_.call_hypothese2.flby2))
(define-fun .def_553 () Bool (= call__main_.call_hypothese2.ok call__main_.call_hypothese2.flby))
(define-fun .def_550 () Bool (= call__main_.call_hypothese.c call__main_.call_hypothese.flby2))
(define-fun .def_546 () Bool (= call__main_.call_hypothese.ok call__main_.call_hypothese.flby))
(define-fun .def_543 () Bool (= call__main_._H1_ call__main_.call_hypothese2.ok))
(define-fun .def_540 () Bool (= call__main_._H0_ call__main_.call_hypothese.ok))
(define-fun .def_537 () Bool (= call__main_.retard1 call__main_.call_controleur2.retard))
(define-fun .def_534 () Bool (= call__main_.retard0 call__main_.call_controleur.retard))
(define-fun .def_531 () Bool (= call__main_.avance1 call__main_.call_controleur2.avance))
(define-fun .def_528 () Bool (= call__main_.avance0 call__main_.call_controleur.avance))
(define-fun .def_525 () Bool (= call__main_.diff1 call__main_.call_controleur2.diff))
(define-fun .def_522 () Bool (= call__main_.diff0 call__main_.call_controleur.diff))
(define-fun .def_519 () Bool (= call__main_.nS call__main_.flby3))
(define-fun .def_516 () Bool (= call__main_.nB1 call__main_.flby2))
(define-fun .def_513 () Bool (= call__main_.nB0 call__main_.flby))
(define-fun .def_509 () Bool (and call__main_._H0_ call__main_._H1_))
(define-fun .def_510 () Bool (= call__main_.ast .def_509))
(define-fun .def_505 () Bool (= call__main_.ast ast))
(define-fun .def_501 () Bool (= retard1 call__main_.retard1))
(define-fun .def_497 () Bool (= retard0 call__main_.retard0))
(define-fun .def_493 () Bool (= avance1 call__main_.avance1))
(define-fun .def_489 () Bool (= avance0 call__main_.avance0))
(define-fun .def_485 () Bool (= diff1 call__main_.diff1))
(define-fun .def_481 () Bool (= diff0 call__main_.diff0))
(define-fun .def_477 () Bool (= nS call__main_.nS))
(define-fun .def_473 () Bool (= nB1 call__main_.nB1))
(define-fun .def_469 () Bool (= nB0 call__main_.nB0))
(define-fun .def_466 () Bool (= _OK_ flby))
(define-fun .def_470 () Bool (and .def_466 .def_469))
(define-fun .def_474 () Bool (and .def_470 .def_473))
(define-fun .def_478 () Bool (and .def_474 .def_477))
(define-fun .def_482 () Bool (and .def_478 .def_481))
(define-fun .def_486 () Bool (and .def_482 .def_485))
(define-fun .def_490 () Bool (and .def_486 .def_489))
(define-fun .def_494 () Bool (and .def_490 .def_493))
(define-fun .def_498 () Bool (and .def_494 .def_497))
(define-fun .def_502 () Bool (and .def_498 .def_501))
(define-fun .def_506 () Bool (and .def_502 .def_505))
(define-fun .def_511 () Bool (and .def_506 .def_510))
(define-fun .def_514 () Bool (and .def_511 .def_513))
(define-fun .def_517 () Bool (and .def_514 .def_516))
(define-fun .def_520 () Bool (and .def_517 .def_519))
(define-fun .def_523 () Bool (and .def_520 .def_522))
(define-fun .def_526 () Bool (and .def_523 .def_525))
(define-fun .def_529 () Bool (and .def_526 .def_528))
(define-fun .def_532 () Bool (and .def_529 .def_531))
(define-fun .def_535 () Bool (and .def_532 .def_534))
(define-fun .def_538 () Bool (and .def_535 .def_537))
(define-fun .def_541 () Bool (and .def_538 .def_540))
(define-fun .def_544 () Bool (and .def_541 .def_543))
(define-fun .def_547 () Bool (and .def_544 .def_546))
(define-fun .def_551 () Bool (and .def_547 .def_550))
(define-fun .def_554 () Bool (and .def_551 .def_553))
(define-fun .def_558 () Bool (and .def_554 .def_557))
(define-fun .def_567 () Bool (and .def_558 .def_566))
(define-fun .def_570 () Bool (and .def_567 .def_569))
(define-fun .def_573 () Bool (and .def_570 .def_572))
(define-fun .def_581 () Bool (and .def_573 .def_580))
(define-fun .def_584 () Bool (and .def_581 .def_583))
(define-fun .def_587 () Bool (and .def_584 .def_586))
(define-fun .def_591 () Bool (and .def_587 .def_590))
(define-fun .def_614 () Bool (and .def_591 .def_613))
(assert .def_614)
